====================================================================================================================
File name: 100_5_48_9.def
Creation date: Mon Nov 24 20:40:30 CET 2014
Website: http://imopse.ii.pwr.edu.pl/
Reference:
Myszkowski P. B., Skowronski M. E., Olech L., Oslizlo K.,
Hybrid Ant Colony Optimization in solving Multi-Skill Resource-Constrained Project Scheduling Problem,
Soft Computing, DOI: DOI 10.1007/s00500-014-1455-x
====================================================================================================================
General characteristics:
Tasks: 100
Resources: 5
Precedence relations: 48
Number of skill types: 9
====================================================================================================================
ResourceID 	 Salary 	 Skills
1	 	 	86.1	 	 Q0: 2 	  Q8: 2 	  Q5: 1 	  Q6: 2 	  Q7: 2 	  Q3: 0
2	 	 	86.6	 	 Q3: 0 	  Q7: 0 	  Q8: 2 	  Q5: 2 	  Q2: 2 	  Q1: 1
3	 	 	92.7	 	 Q3: 2 	  Q1: 0 	  Q2: 1 	  Q5: 1 	  Q8: 2 	  Q4: 0
4	 	 	75.3	 	 Q5: 2 	  Q6: 0 	  Q1: 0 	  Q4: 1 	  Q3: 0 	  Q8: 1
5	 	 	58.7	 	 Q8: 2 	  Q3: 0 	  Q6: 1 	  Q0: 1 	  Q2: 0 	  Q7: 1
====================================================================================================================
TaskID 	 Duration 	 Skill 	 Predecessor IDs
1	 	 	22	 Q8: 1
2	 	 	16	 Q6: 0
3	 	 	28	 Q5: 2
4	 	 	10	 Q0: 1
5	 	 	26	 Q5: 2
6	 	 	27	 Q7: 1
7	 	 	40	 Q1: 0
8	 	 	24	 Q6: 2
9	 	 	16	 Q0: 2
10	 	 	40	 Q7: 1
11	 	 	17	 Q5: 2
12	 	 	10	 Q1: 0	 	10
13	 	 	18	 Q7: 0
14	 	 	35	 Q2: 1
15	 	 	35	 Q6: 0
16	 	 	11	 Q4: 1
17	 	 	35	 Q1: 1
18	 	 	17	 Q2: 2
19	 	 	21	 Q6: 0	 	7
20	 	 	13	 Q3: 2
21	 	 	28	 Q8: 2
22	 	 	29	 Q6: 1
23	 	 	12	 Q6: 1
24	 	 	17	 Q6: 1
25	 	 	35	 Q3: 0
26	 	 	21	 Q1: 0
27	 	 	40	 Q8: 2
28	 	 	21	 Q6: 0
29	 	 	25	 Q5: 1	 	12
30	 	 	15	 Q0: 2	 	27	29	15
31	 	 	19	 Q7: 0
32	 	 	11	 Q5: 2
33	 	 	37	 Q3: 2
34	 	 	30	 Q6: 0
35	 	 	31	 Q4: 1	 	17
36	 	 	34	 Q6: 0	 	27
37	 	 	23	 Q3: 2	 	19
38	 	 	36	 Q0: 2
39	 	 	30	 Q0: 2	 	22
40	 	 	35	 Q6: 2
41	 	 	19	 Q0: 1
42	 	 	30	 Q5: 1
43	 	 	21	 Q3: 0	 	26
44	 	 	33	 Q8: 1
45	 	 	35	 Q7: 0
46	 	 	26	 Q7: 1	 	32
47	 	 	37	 Q0: 1	 	46
48	 	 	30	 Q7: 1
49	 	 	24	 Q1: 0
50	 	 	16	 Q0: 1	 	41
51	 	 	36	 Q3: 2
52	 	 	14	 Q6: 2	 	50	5
53	 	 	28	 Q3: 2	 	8
54	 	 	14	 Q5: 2	 	12	27
55	 	 	40	 Q7: 2	 	3
56	 	 	10	 Q5: 2	 	10
57	 	 	21	 Q3: 0	 	1	3	21
58	 	 	28	 Q1: 1	 	19
59	 	 	19	 Q6: 2
60	 	 	28	 Q1: 1
61	 	 	15	 Q0: 2	 	18
62	 	 	23	 Q3: 0
63	 	 	37	 Q7: 1	 	34
64	 	 	20	 Q2: 0	 	53
65	 	 	28	 Q2: 1	 	32
66	 	 	30	 Q5: 2
67	 	 	21	 Q6: 0	 	33
68	 	 	27	 Q0: 2
69	 	 	29	 Q4: 1
70	 	 	29	 Q2: 1
71	 	 	25	 Q5: 2	 	51
72	 	 	20	 Q8: 1	 	14
73	 	 	20	 Q6: 2
74	 	 	23	 Q2: 1
75	 	 	32	 Q3: 2	 	17
76	 	 	9	 Q2: 0
77	 	 	32	 Q3: 0
78	 	 	18	 Q2: 2	 	48
79	 	 	15	 Q2: 1	 	51	17	23
80	 	 	13	 Q7: 2
81	 	 	28	 Q3: 0
82	 	 	26	 Q3: 0
83	 	 	38	 Q5: 2	 	66	82
84	 	 	22	 Q5: 1
85	 	 	19	 Q7: 2	 	16
86	 	 	21	 Q6: 2
87	 	 	19	 Q7: 2
88	 	 	25	 Q6: 1
89	 	 	14	 Q6: 1
90	 	 	28	 Q3: 0
91	 	 	36	 Q8: 2	 	53
92	 	 	19	 Q6: 0	 	71
93	 	 	26	 Q5: 2
94	 	 	12	 Q1: 1
95	 	 	16	 Q2: 2
96	 	 	24	 Q1: 1	 	83	7	29
97	 	 	21	 Q3: 2	 	20	28	79
98	 	 	21	 Q8: 2
99	 	 	35	 Q1: 1
100	 	 	33	 Q7: 2
====================================================================================================================
